-80.0 4.0 8.0 0.0 3.0 0.0 0.0 6.0 1.0 0.0 4.0 8.0 10.0 8.0 6.0 4.0 7.0 6.0 5.0 
4.0 -95.0 10.0 7.0 1.0 2.0 9.0 5.0 8.0 7.0 7.0 4.0 10.0 2.0 5.0 1.0 5.0 8.0 0.0 
8.0 10.0 -96.0 9.0 4.0 5.0 1.0 8.0 3.0 2.0 8.0 1.0 10.0 7.0 0.0 5.0 1.0 10.0 4.0 
0.0 7.0 9.0 -111.0 10.0 8.0 9.0 8.0 7.0 8.0 7.0 4.0 5.0 0.0 0.0 4.0 8.0 10.0 7.0 
3.0 1.0 4.0 10.0 -101.0 3.0 6.0 1.0 2.0 10.0 8.0 7.0 6.0 10.0 9.0 1.0 6.0 8.0 6.0 
0.0 2.0 5.0 8.0 3.0 -81.0 9.0 3.0 10.0 2.0 10.0 6.0 4.0 2.0 6.0 1.0 2.0 0.0 8.0 
0.0 9.0 1.0 9.0 6.0 9.0 -86.0 0.0 1.0 8.0 0.0 0.0 8.0 9.0 4.0 5.0 2.0 9.0 6.0 
6.0 5.0 8.0 8.0 1.0 3.0 0.0 -92.0 3.0 0.0 10.0 7.0 5.0 7.0 10.0 0.0 2.0 9.0 8.0 
1.0 8.0 3.0 7.0 2.0 10.0 1.0 3.0 -93.0 7.0 6.0 4.0 4.0 2.0 5.0 9.0 8.0 3.0 10.0 
0.0 7.0 2.0 8.0 10.0 2.0 8.0 0.0 7.0 -105.0 5.0 6.0 8.0 10.0 5.0 9.0 8.0 3.0 7.0 
4.0 7.0 8.0 7.0 8.0 10.0 0.0 10.0 6.0 5.0 -116.0 7.0 4.0 9.0 4.0 7.0 5.0 6.0 9.0 
8.0 4.0 1.0 4.0 7.0 6.0 0.0 7.0 4.0 6.0 7.0 -95.0 10.0 10.0 3.0 8.0 4.0 2.0 4.0 
10.0 10.0 10.0 5.0 6.0 4.0 8.0 5.0 4.0 8.0 4.0 10.0 -107.0 6.0 0.0 8.0 6.0 3.0 0.0 
8.0 2.0 7.0 0.0 10.0 2.0 9.0 7.0 2.0 10.0 9.0 10.0 6.0 -108.0 2.0 8.0 5.0 3.0 8.0 
6.0 5.0 0.0 0.0 9.0 6.0 4.0 10.0 5.0 5.0 4.0 3.0 0.0 2.0 -66.0 1.0 0.0 5.0 1.0 
4.0 1.0 5.0 4.0 1.0 1.0 5.0 0.0 9.0 9.0 7.0 8.0 8.0 8.0 1.0 -81.0 5.0 1.0 4.0 
7.0 5.0 1.0 8.0 6.0 2.0 2.0 2.0 8.0 8.0 5.0 4.0 6.0 5.0 0.0 5.0 -79.0 0.0 5.0 
6.0 8.0 10.0 10.0 8.0 0.0 9.0 9.0 3.0 3.0 6.0 2.0 3.0 3.0 5.0 1.0 0.0 -92.0 6.0 
5.0 0.0 4.0 7.0 6.0 8.0 6.0 8.0 10.0 7.0 9.0 4.0 0.0 8.0 1.0 4.0 5.0 6.0 -98.0 

